30 109 247
1 10 2
1 17 1
1 21 2
1 22 1
2 3 2
2 16 2
2 17 3
2 20 4
2 21 5
3 10 4
3 15 4
3 17 4
3 19 5
3 20 5
3 22 4
3 23 4
3 27 2
4 9 4
4 13 2
4 28 4
4 30 3
5 6 4
5 7 1
5 10 4
5 11 3
5 12 1
5 13 1
5 23 1
5 25 4
5 27 1
5 29 4
6 11 3
6 13 3
6 14 3
6 15 5
6 16 4
6 18 2
6 22 3
6 23 4
6 24 2
6 29 4
7 10 1
7 18 5
7 22 3
7 23 3
7 28 5
8 19 1
8 27 4
8 29 1
9 13 3
9 20 2
9 21 5
9 28 1
10 17 3
10 18 4
11 14 5
11 15 3
11 19 2
11 20 4
11 21 5
11 29 2
12 13 1
12 16 3
12 19 5
12 22 2
12 30 4
13 16 1
13 19 2
13 21 2
13 22 2
13 28 4
13 29 5
14 18 2
14 19 5
14 21 3
14 23 5
14 28 4
14 29 5
15 21 5
15 22 3
15 25 2
15 26 4
15 28 2
16 17 4
16 23 1
16 24 2
16 25 2
17 23 5
17 27 3
17 29 2
18 20 3
18 22 3
18 25 3
18 29 1
19 25 5
19 27 1
20 23 2
20 30 3
21 24 2
22 26 1
23 24 3
24 25 2
24 27 1
26 27 2
26 28 4
26 30 3
27 28 1
28 30 2
29 30 3
